481 5
10 10 10 10 10 

0 0 0 0 0 0 5 2 44 86 128 170 
0 0 0 0 0 0 3 3 6 7 
5 1 3 0 1 3 1 4 
3 7 4 0 3 3 1 5 
10 9 5 0 5 3 1 8 
1 9 4 0 5 2 1 8 
6 8 3 0 5 3 1 8 
2 3 7 0 4 3 1 9 
7 7 6 0 9 4 1 10 
4 2 8 0 3 2 1 11 
1 2 6 0 5 2 2 14 12 
7 3 2 0 8 4 1 13 
6 4 5 0 6 4 1 15 
9 6 3 0 9 5 1 15 
8 4 3 0 7 7 1 16 
9 4 4 0 5 6 1 17 
4 9 2 0 7 5 1 18 
3 6 6 0 7 10 3 21 19 163 
8 3 3 0 3 6 2 23 20 
4 4 5 0 1 4 1 22 
4 6 4 0 4 5 3 41 28 25 
5 1 7 0 9 5 2 41 24 
9 6 5 0 9 8 2 41 25 
6 10 5 0 2 6 1 25 
6 6 7 0 5 3 1 26 
6 1 4 0 6 4 1 27 
7 6 5 0 5 2 1 29 
10 5 5 0 3 5 1 29 
10 5 2 0 6 6 3 36 33 30 
1 5 4 0 3 8 1 31 
5 6 6 0 4 5 2 38 32 
10 3 5 0 5 5 1 34 
1 3 9 0 4 3 1 34 
4 3 5 0 7 10 1 35 
7 10 3 0 5 7 1 37 
6 7 10 0 3 6 1 37 
5 4 8 0 3 5 1 39 
2 4 3 0 6 3 1 39 
8 6 9 0 10 5 1 40 
10 2 6 0 2 6 1 42 
7 4 5 0 5 7 1 42 
8 6 4 0 1 10 1 43 
0 0 0 0 0 0 1 470 
0 0 0 0 0 0 3 45 70 84 
1 1 0 1 1 1 1 46 
3 2 0 4 4 5 1 47 
10 4 0 4 5 8 1 48 
9 4 0 9 6 5 2 49 210 
3 5 0 4 6 6 2 83 50 
3 4 0 5 4 8 1 51 
6 4 0 6 5 3 1 52 
8 2 0 4 7 5 1 53 
5 5 0 6 4 3 2 82 54 
1 3 0 4 4 2 1 55 
6 7 0 6 4 5 1 56 
9 6 0 8 5 4 1 57 
6 5 0 6 7 6 2 81 58 
3 2 0 4 8 5 3 80 79 59 
3 6 0 5 4 4 1 60 
1 7 0 2 9 4 1 61 
5 4 0 6 9 4 1 62 
3 4 0 6 4 7 1 63 
9 8 0 4 8 5 2 78 64 
3 3 0 4 5 10 3 77 76 65 
2 5 0 5 2 8 1 66 
4 9 0 3 6 5 1 67 
3 5 0 9 5 5 1 68 
5 6 0 5 5 8 1 69 
7 5 0 4 5 2 1 71 
9 7 0 1 5 7 1 71 
8 9 0 4 4 3 1 72 
9 6 0 4 4 4 1 73 
3 8 0 9 6 7 1 74 
10 4 0 4 1 5 1 75 
7 3 0 8 4 3 1 85 
1 2 0 4 7 3 1 85 
6 6 0 4 4 6 1 85 
3 5 0 4 4 7 1 85 
7 7 0 7 3 3 1 85 
9 5 0 5 10 7 1 85 
4 10 0 4 3 6 1 85 
3 5 0 6 3 2 1 85 
7 5 0 3 8 4 1 85 
2 2 0 9 2 5 1 85 
0 0 0 0 0 0 1 470 
0 0 0 0 0 0 3 87 100 108 
9 1 1 0 4 1 1 88 
4 6 2 0 1 7 1 89 
3 5 5 0 4 7 1 90 
8 4 8 0 3 5 1 91 
4 3 2 0 5 7 2 102 92 
3 5 5 0 7 1 1 93 
6 5 6 0 3 6 1 94 
2 4 4 0 4 5 1 95 
5 1 6 0 9 4 1 96 
9 7 5 0 6 7 2 126 97 
9 2 4 0 7 7 1 98 
6 9 2 0 9 7 1 99 
3 7 7 0 2 7 2 125 101 
7 6 6 0 9 8 3 126 101 219 
7 6 7 0 10 9 3 124 117 103 
8 6 6 0 6 6 3 124 117 104 
1 7 4 0 4 5 1 104 
10 3 5 0 6 6 1 105 
7 3 5 0 6 5 1 106 
5 7 6 0 4 3 1 107 
6 7 6 0 3 3 2 123 109 
5 7 6 0 6 4 2 123 109 
8 4 8 0 5 5 3 122 121 110 
9 4 4 0 3 4 1 111 
10 3 4 0 3 2 1 112 
9 5 5 0 2 1 1 113 
5 4 3 0 3 4 1 114 
3 9 7 0 4 3 1 115 
9 5 5 0 5 8 1 116 
9 5 7 0 10 6 1 118 
10 1 2 0 4 1 1 118 
6 8 7 0 4 4 1 119 
7 8 5 0 4 10 1 120 
8 3 7 0 3 9 1 127 
4 4 7 0 7 5 1 127 
4 6 6 0 5 6 1 127 
10 6 5 0 7 1 1 127 
5 6 5 0 5 6 1 127 
5 5 3 0 4 3 1 127 
3 3 2 0 4 2 1 127 
0 0 0 0 0 0 1 470 
0 0 0 0 0 0 3 129 138 146 
10 0 4 2 1 1 1 130 
9 0 2 5 4 5 1 131 
10 0 4 5 3 9 1 132 
4 0 6 6 3 3 2 133 191 
3 0 6 10 2 4 2 143 134 
7 0 5 7 4 8 1 135 
8 0 6 4 3 4 1 136 
1 0 6 4 5 6 1 137 
6 0 5 2 10 3 1 139 
9 0 5 7 5 3 1 139 
8 0 4 6 7 2 1 140 
3 0 7 3 5 3 2 162 141 
2 0 6 10 4 8 1 142 
1 0 6 4 8 6 2 168 144 
8 0 3 6 7 2 2 168 144 
5 0 9 2 10 8 2 158 145 
4 0 6 4 5 3 2 167 147 
10 0 2 5 5 2 2 158 147 
10 0 7 6 6 7 1 148 
4 0 4 7 5 3 1 149 
3 0 10 6 5 2 1 150 
8 0 7 3 5 4 2 164 151 
10 0 8 6 4 6 3 166 165 152 
4 0 5 6 5 5 1 153 
3 0 3 5 3 4 1 154 
9 0 6 5 6 7 1 155 
8 0 4 3 5 9 1 156 
10 0 3 5 7 6 1 157 
4 0 6 2 2 9 1 159 
4 0 4 4 5 7 1 159 
9 0 6 8 6 7 1 160 
9 0 4 4 4 7 1 161 
6 0 4 8 4 4 1 163 
8 0 2 2 6 4 1 164 
6 0 4 5 3 7 1 169 
6 0 4 1 2 4 1 169 
7 0 2 2 8 5 1 169 
9 0 4 8 6 4 1 169 
4 0 3 5 3 5 1 169 
4 0 8 7 9 4 1 169 
0 0 0 0 0 0 1 470 
0 0 0 0 0 0 1 171 
10 0 0 1 0 0 1 172 
8 0 0 4 0 0 2 174 173 
9 0 0 8 0 0 2 176 175 
6 0 0 3 0 0 2 176 175 
4 0 0 5 0 0 1 177 
6 0 0 7 0 0 1 177 
6 0 0 6 0 0 1 178 
9 0 0 6 0 0 2 180 179 
3 0 0 6 0 0 1 181 
6 0 0 4 0 0 1 181 
0 0 0 0 0 0 5 182 214 246 258 290 
0 0 0 0 0 0 2 183 212 
3 1 2 0 0 1 1 184 
3 2 2 0 0 6 1 185 
6 3 6 0 0 3 1 186 
8 7 6 0 0 8 1 187 
7 5 3 0 0 2 2 211 188 
7 6 10 0 0 5 1 189 
9 6 5 0 0 4 4 210 209 208 190 
8 3 4 0 0 7 2 207 191 
5 1 5 0 0 5 2 201 192 
1 4 9 0 0 7 1 193 
2 4 5 0 0 4 1 194 
3 5 4 0 0 5 2 206 195 
2 10 7 0 0 6 1 196 
1 5 4 0 0 7 1 197 
2 5 7 0 0 10 1 198 
1 8 5 0 0 4 1 199 
9 5 4 0 0 3 1 200 
5 6 5 0 0 7 1 202 
3 7 4 0 0 3 1 202 
1 4 2 0 0 5 1 203 
10 7 4 0 0 6 1 204 
8 3 9 0 0 7 1 205 
6 5 4 0 0 3 1 213 
3 6 6 0 0 5 1 213 
5 2 6 0 0 3 1 213 
4 9 7 0 0 4 1 213 
2 5 4 0 0 3 1 213 
7 4 1 0 0 3 1 213 
5 4 5 0 0 8 1 213 
7 8 5 0 0 6 1 213 
0 0 0 0 0 0 1 470 
0 0 0 0 0 0 2 215 220 
2 0 0 1 1 1 1 216 
9 0 0 7 7 3 1 217 
6 0 0 6 8 5 1 218 
5 0 0 6 7 8 1 219 
3 0 0 2 3 4 2 225 221 
3 0 0 5 7 6 1 221 
10 0 0 4 3 8 1 222 
10 0 0 8 4 6 1 223 
5 0 0 5 6 2 3 228 227 224 
1 0 0 4 8 9 2 230 226 
2 0 0 6 6 4 1 226 
2 0 0 3 5 6 3 233 232 229 
4 0 0 6 5 9 2 232 229 
6 0 0 7 3 4 2 232 229 
1 0 0 6 4 3 1 231 
8 0 0 8 4 2 1 231 
2 0 0 3 5 4 1 234 
8 0 0 7 7 5 1 234 
2 0 0 4 3 7 1 234 
1 0 0 6 2 6 1 235 
6 0 0 4 1 3 1 236 
2 0 0 3 8 5 2 240 237 
8 0 0 3 3 7 1 238 
3 0 0 2 8 6 1 239 
6 0 0 5 6 3 1 241 
10 0 0 6 7 2 1 241 
7 0 0 9 3 7 1 242 
3 0 0 7 4 5 1 243 
4 0 0 5 7 7 1 244 
1 0 0 2 5 3 1 245 
0 0 0 0 0 0 1 470 
0 0 0 0 0 0 2 247 248 
7 0 0 1 0 0 2 252 249 
10 0 0 3 0 0 2 252 251 
7 0 0 3 0 0 1 250 
2 0 0 5 0 0 1 251 
7 0 0 9 0 0 2 255 253 
6 0 0 6 0 0 2 255 253 
10 0 0 9 0 0 1 254 
9 0 0 1 0 0 1 256 
7 0 0 6 0 0 1 256 
6 0 0 7 0 0 1 257 
0 0 0 0 0 0 5 322 344 366 388 410 
0 0 0 0 0 0 2 259 271 
10 0 2 0 1 1 1 260 
3 0 4 0 3 6 1 261 
8 0 5 0 8 3 1 262 
3 0 5 0 9 7 1 263 
8 0 8 0 7 4 2 270 264 
4 0 5 0 7 5 1 265 
1 0 3 0 6 3 1 266 
5 0 3 0 3 2 3 276 269 267 
7 0 2 0 4 6 2 273 268 
4 0 2 0 3 6 3 278 275 272 
9 0 9 0 3 4 2 278 274 
5 0 5 0 7 9 1 272 
9 0 6 0 5 6 1 272 
7 0 4 0 4 7 1 274 
9 0 10 0 6 6 1 274 
6 0 8 0 2 6 1 277 
6 0 4 0 6 5 1 277 
6 0 4 0 4 4 1 278 
4 0 7 0 5 6 1 279 
8 0 5 0 6 6 1 279 
3 0 8 0 4 5 1 280 
7 0 8 0 7 5 2 287 281 
10 0 8 0 2 4 1 282 
4 0 3 0 6 6 1 283 
8 0 3 0 8 5 1 284 
10 0 2 0 2 7 1 285 
4 0 4 0 3 4 1 286 
5 0 6 0 7 5 1 288 
8 0 5 0 8 3 1 288 
8 0 2 0 4 4 1 289 
0 0 0 0 0 0 1 470 
0 0 0 0 0 0 2 291 296 
6 1 0 0 1 1 1 292 
1 3 0 0 6 5 1 293 
4 6 0 0 5 2 2 295 294 
9 3 0 0 6 6 1 297 
9 7 0 0 3 4 1 297 
4 4 0 0 5 3 1 297 
6 5 0 0 3 4 2 301 298 
10 4 0 0 6 8 2 304 299 
10 10 0 0 2 4 1 300 
10 4 0 0 4 5 2 310 302 
3 8 0 0 10 4 2 304 302 
6 4 0 0 3 3 1 303 
1 6 0 0 6 2 2 309 305 
4 7 0 0 4 6 2 309 305 
6 3 0 0 8 4 1 306 
5 2 0 0 8 4 2 319 307 
7 7 0 0 5 3 2 315 308 
9 7 0 0 8 10 1 311 
5 5 0 0 6 2 1 311 
7 5 0 0 4 4 3 319 315 314 
5 5 0 0 3 5 1 312 
1 3 0 0 4 9 1 313 
6 1 0 0 6 4 1 314 
9 7 0 0 3 7 1 316 
2 5 0 0 8 4 1 316 
1 4 0 0 6 4 1 317 
9 5 0 0 6 9 1 318 
6 8 0 0 6 8 1 320 
8 4 0 0 4 10 1 320 
7 7 0 0 1 6 1 321 
0 0 0 0 0 0 1 470 
0 0 0 0 0 0 2 323 324 
10 1 0 0 0 1 2 326 325 
7 6 0 0 0 4 2 327 325 
3 4 0 0 0 9 2 329 328 
5 7 0 0 0 6 1 327 
7 5 0 0 0 5 1 328 
8 6 0 0 0 3 1 330 
2 3 0 0 0 4 1 330 
6 6 0 0 0 4 1 331 
1 5 0 0 0 5 2 333 332 
5 5 0 0 0 6 1 334 
3 6 0 0 0 7 1 334 
7 5 0 0 0 6 1 335 
1 6 0 0 0 6 1 336 
10 2 0 0 0 4 2 341 337 
4 10 0 0 0 5 1 338 
3 4 0 0 0 5 1 339 
4 7 0 0 0 5 1 340 
10 5 0 0 0 8 1 342 
10 3 0 0 0 4 1 342 
10 4 0 0 0 3 1 343 
0 0 0 0 0 0 1 470 
0 0 0 0 0 0 2 345 348 
1 0 0 1 0 1 1 346 
3 0 0 8 0 7 2 353 347 
4 0 0 4 0 5 2 352 349 
8 0 0 6 0 4 2 352 349 
8 0 0 7 0 5 1 350 
3 0 0 3 0 4 2 357 351 
2 0 0 4 0 5 1 354 
10 0 0 5 0 9 1 354 
1 0 0 5 0 3 1 354 
1 0 0 8 0 6 1 355 
10 0 0 4 0 3 1 356 
2 0 0 3 0 9 1 358 
9 0 0 3 0 5 1 358 
5 0 0 4 0 4 1 359 
6 0 0 6 0 4 1 360 
8 0 0 5 0 4 2 364 361 
5 0 0 6 0 6 1 362 
8 0 0 5 0 5 1 363 
1 0 0 7 0 3 1 365 
10 0 0 6 0 8 1 365 
0 0 0 0 0 0 1 470 
0 0 0 0 0 0 2 367 368 
7 0 0 0 1 1 1 369 
4 0 0 0 5 9 3 375 373 372 
10 0 0 0 3 3 1 370 
2 0 0 0 7 3 1 371 
1 0 0 0 7 4 1 372 
7 0 0 0 6 6 1 374 
8 0 0 0 6 2 1 374 
3 0 0 0 5 5 2 379 376 
7 0 0 0 7 7 2 379 377 
4 0 0 0 4 8 1 377 
6 0 0 0 6 3 1 378 
9 0 0 0 5 7 2 386 380 
2 0 0 0 2 7 2 386 380 
5 0 0 0 4 7 1 381 
1 0 0 0 2 7 1 382 
4 0 0 0 6 7 1 383 
5 0 0 0 8 4 1 384 
5 0 0 0 6 4 1 385 
10 0 0 0 5 3 1 387 
7 0 0 0 5 3 1 387 
0 0 0 0 0 0 1 470 
0 0 0 0 0 0 3 389 394 408 
4 0 1 0 1 0 1 390 
7 0 6 0 4 0 1 391 
1 0 3 0 5 0 1 392 
6 0 7 0 5 0 2 398 393 
2 0 5 0 4 0 2 405 395 
10 0 6 0 5 0 2 405 396 
4 0 7 0 7 0 1 396 
8 0 6 0 4 0 2 407 397 
4 0 9 0 6 0 1 399 
6 0 7 0 4 0 1 399 
3 0 4 0 5 0 1 400 
10 0 5 0 4 0 1 401 
3 0 3 0 5 0 1 402 
8 0 6 0 4 0 1 403 
8 0 9 0 5 0 1 404 
5 0 4 0 7 0 1 406 
9 0 2 0 6 0 1 406 
7 0 2 0 4 0 1 409 
10 0 5 0 7 0 1 409 
1 0 3 0 8 0 1 409 
0 0 0 0 0 0 1 470 
0 0 0 0 0 0 1 411 
10 0 0 0 1 0 3 416 413 412 
4 0 0 0 5 0 2 415 414 
4 0 0 0 6 0 1 414 
4 0 0 0 6 0 1 417 
10 0 0 0 6 0 1 417 
10 0 0 0 6 0 1 417 
2 0 0 0 7 0 1 418 
6 0 0 0 2 0 1 419 
7 0 0 0 7 0 1 420 
9 0 0 0 4 0 1 421 
0 0 0 0 0 0 4 422 434 446 458 
0 0 0 0 0 0 2 423 424 
5 0 1 0 0 0 2 426 425 
4 0 6 0 0 0 2 426 425 
8 0 3 0 0 0 1 427 
3 0 7 0 0 0 1 427 
10 0 8 0 0 0 2 431 428 
9 0 4 0 0 0 1 429 
7 0 4 0 0 0 1 430 
5 0 4 0 0 0 1 432 
4 0 9 0 0 0 1 432 
9 0 4 0 0 0 1 433 
0 0 0 0 0 0 1 470 
0 0 0 0 0 0 2 435 444 
2 0 0 0 1 0 1 436 
8 0 0 0 6 0 1 437 
10 0 0 0 5 0 1 438 
5 0 0 0 3 0 3 443 442 439 
5 0 0 0 4 0 1 440 
3 0 0 0 5 0 1 441 
2 0 0 0 6 0 1 445 
8 0 0 0 7 0 1 445 
10 0 0 0 8 0 1 445 
5 0 0 0 5 0 1 445 
0 0 0 0 0 0 1 470 
0 0 0 0 0 0 3 447 450 453 
10 1 0 0 0 0 1 448 
9 6 0 0 0 0 1 449 
9 3 0 0 0 0 1 451 
1 3 0 0 0 0 1 451 
3 7 0 0 0 0 1 452 
8 4 0 0 0 0 2 456 454 
3 6 0 0 0 0 1 454 
3 7 0 0 0 0 1 455 
2 7 0 0 0 0 1 457 
10 6 0 0 0 0 1 457 
0 0 0 0 0 0 1 470 
0 0 0 0 0 0 3 459 462 464 
5 1 0 0 0 0 1 460 
10 6 0 0 0 0 2 468 461 
7 8 0 0 0 0 1 463 
1 7 0 0 0 0 2 468 466 
4 6 0 0 0 0 1 465 
5 4 0 0 0 0 1 465 
2 4 0 0 0 0 1 466 
1 4 0 0 0 0 1 467 
5 7 0 0 0 0 1 469 
5 3 0 0 0 0 1 469 
0 0 0 0 0 0 1 470 
0 0 0 0 0 0 2 471 473 
8 0 0 0 1 0 2 474 472 
5 0 0 0 5 0 1 475 
9 0 0 0 8 0 1 474 
7 0 0 0 5 0 1 476 
10 0 0 0 8 0 1 476 
10 0 0 0 5 0 2 480 477 
5 0 0 0 6 0 1 478 
3 0 0 0 5 0 1 479 
10 0 0 0 3 0 1 481 
7 0 0 0 4 0 1 481 
0 0 0 0 0 0 0 
